
Gurobi 9.1.1 (win64) logging started Sun Mar 13 20:45:50 2022

Changed value of parameter LogFile to ./Log/Pattern_Appro_solver_1500_order_150_batch.log
   Prev:   Default: 
Gurobi Optimizer version 9.1.1 build v9.1.1rc0 (win64)
Thread count: 6 physical cores, 12 logical processors, using up to 12 threads
Optimize a model with 7606 rows, 45600 columns and 162000 nonzeros
Model fingerprint: 0x604c25dc
Variable types: 0 continuous, 45600 integer (35400 binary)
Coefficient statistics:
  Matrix range     [1e+00, 1e+01]
  Objective range  [1e+00, 4e+01]
  Bounds range     [1e+00, 7e+01]
  RHS range        [1e+00, 7e+01]
Found heuristic solution: objective 10321.000000
Presolve removed 502 rows and 3759 columns
Presolve time: 0.23s
Presolved: 7104 rows, 41841 columns, 145467 nonzeros
Variable types: 0 continuous, 41841 integer (32366 binary)

Root relaxation: objective 4.033111e+03, 15731 iterations, 0.42 seconds

    Nodes    |    Current Node    |     Objective Bounds      |     Work
 Expl Unexpl |  Obj  Depth IntInf | Incumbent    BestBd   Gap | It/Node Time

     0     0 4033.11111    0  270 10321.0000 4033.11111  60.9%     -    1s
H    0     0                    6249.0000000 4033.11111  35.5%     -    1s
H    0     0                    6245.0000000 4033.11111  35.4%     -    1s
H    0     0                    6170.0000000 4033.11111  34.6%     -    1s
     0     0 4043.20741    0  505 6170.00000 4043.20741  34.5%     -    2s
H    0     0                    5759.0000000 4043.20741  29.8%     -    3s
     0     0 4045.08241    0  539 5759.00000 4045.08241  29.8%     -    3s
     0     0 4059.21697    0  539 5759.00000 4059.21697  29.5%     -    4s
     0     0 4079.17439    0  539 5759.00000 4079.17439  29.2%     -    4s
     0     0 4080.24286    0  520 5759.00000 4080.24286  29.2%     -    4s
     0     0 4080.24286    0  531 5759.00000 4080.24286  29.2%     -    4s
     0     0 4092.01490    0  590 5759.00000 4092.01490  28.9%     -    5s
H    0     0                    5640.0000000 4092.01490  27.4%     -    5s
     0     0 4093.27260    0  612 5640.00000 4093.27260  27.4%     -    5s
     0     0 4094.66263    0  612 5640.00000 4094.66263  27.4%     -    5s
     0     0 4094.67675    0  608 5640.00000 4094.67675  27.4%     -    5s
     0     0 4099.78084    0  680 5640.00000 4099.78084  27.3%     -    6s
H    0     0                    5591.0000000 4099.78084  26.7%     -    6s
     0     0 4100.70081    0  698 5591.00000 4100.70081  26.7%     -    6s
     0     0 4101.48979    0  681 5591.00000 4101.48979  26.6%     -    7s
     0     0 4101.48979    0  680 5591.00000 4101.48979  26.6%     -    7s
     0     0 4106.12252    0  724 5591.00000 4106.12252  26.6%     -    7s
     0     0 4108.48921    0  790 5591.00000 4108.48921  26.5%     -    8s
     0     0 4108.59212    0  804 5591.00000 4108.59212  26.5%     -    8s
     0     0 4108.61221    0  803 5591.00000 4108.61221  26.5%     -    9s
H    0     0                    5419.0000000 4108.61221  24.2%     -    9s
H    0     0                    5352.0000000 4108.61221  23.2%     -   11s
     0     0 4115.90794    0  913 5352.00000 4115.90794  23.1%     -   11s
     0     0 4119.29921    0  842 5352.00000 4119.29921  23.0%     -   12s
     0     0 4121.21466    0  855 5352.00000 4121.21466  23.0%     -   12s
     0     0 4121.93663    0  858 5352.00000 4121.93663  23.0%     -   12s
     0     0 4121.93663    0  861 5352.00000 4121.93663  23.0%     -   12s
     0     0 4125.67806    0  908 5352.00000 4125.67806  22.9%     -   14s
H    0     0                    5322.0000000 4125.67806  22.5%     -   15s
     0     0 4126.75046    0  901 5322.00000 4126.75046  22.5%     -   15s
     0     0 4127.47820    0  932 5322.00000 4127.47820  22.4%     -   15s
     0     0 4127.59497    0  928 5322.00000 4127.59497  22.4%     -   15s
     0     0 4127.59497    0  935 5322.00000 4127.59497  22.4%     -   16s
     0     0 4131.90716    0  918 5322.00000 4131.90716  22.4%     -   17s
     0     0 4132.00648    0  944 5322.00000 4132.00648  22.4%     -   17s
     0     0 4132.38575    0  941 5322.00000 4132.38575  22.4%     -   17s
     0     0 4132.43157    0  931 5322.00000 4132.43157  22.4%     -   18s
     0     0 4136.82379    0 1015 5322.00000 4136.82379  22.3%     -   19s
H    0     0                    5003.0000000 4136.82379  17.3%     -   27s
     0     0 4138.36481    0 1108 5003.00000 4138.36481  17.3%     -   29s
     0     0 4138.66224    0 1106 5003.00000 4138.66224  17.3%     -   30s
     0     0 4138.67841    0 1083 5003.00000 4138.67841  17.3%     -   30s
     0     0 4141.70803    0 1100 5003.00000 4141.70803  17.2%     -   32s
     0     0 4142.72522    0 1133 5003.00000 4142.72522  17.2%     -   34s
     0     0 4142.87292    0 1144 5003.00000 4142.87292  17.2%     -   34s
     0     0 4143.05012    0 1187 5003.00000 4143.05012  17.2%     -   35s
     0     0 4143.24080    0 1144 5003.00000 4143.24080  17.2%     -   35s
     0     0 4143.26007    0 1158 5003.00000 4143.26007  17.2%     -   35s
     0     0 4147.44047    0 1165 5003.00000 4147.44047  17.1%     -   37s
     0     0 4147.72020    0 1166 5003.00000 4147.72020  17.1%     -   38s
     0     0 4148.10120    0 1127 5003.00000 4148.10120  17.1%     -   39s
     0     0 4148.17449    0 1177 5003.00000 4148.17449  17.1%     -   39s
     0     0 4153.81190    0 1089 5003.00000 4153.81190  17.0%     -   42s
     0     0 4154.12820    0 1209 5003.00000 4154.12820  17.0%     -   43s
     0     0 4154.61718    0 1168 5003.00000 4154.61718  17.0%     -   44s
     0     0 4154.63500    0 1197 5003.00000 4154.63500  17.0%     -   44s
     0     0 4159.73381    0 1196 5003.00000 4159.73381  16.9%     -   47s
     0     0 4160.12985    0 1246 5003.00000 4160.12985  16.8%     -   48s
     0     0 4161.36671    0 1286 5003.00000 4161.36671  16.8%     -   49s
     0     0 4162.34717    0 1271 5003.00000 4162.34717  16.8%     -   50s
     0     0 4162.79513    0 1237 5003.00000 4162.79513  16.8%     -   51s
     0     0 4163.07106    0 1304 5003.00000 4163.07106  16.8%     -   52s
     0     0 4163.25755    0 1341 5003.00000 4163.25755  16.8%     -   52s
     0     0 4163.65062    0 1304 5003.00000 4163.65062  16.8%     -   53s
     0     0 4163.72012    0 1294 5003.00000 4163.72012  16.8%     -   54s
     0     0 4166.54467    0 1334 5003.00000 4166.54467  16.7%     -   56s
     0     0 4166.65654    0 1514 5003.00000 4166.65654  16.7%     -   57s
     0     0 4167.62913    0 1463 5003.00000 4167.62913  16.7%     -   60s

Cutting planes:
  Gomory: 182
  Cover: 2412
  Implied bound: 111
  Clique: 130
  MIR: 206
  StrongCG: 10
  Flow cover: 42
  GUB cover: 16
  Zero half: 89
  Relax-and-lift: 7

Explored 1 nodes (75527 simplex iterations) in 60.04 seconds
Thread count was 12 (of 12 available processors)

Solution count 10: 5003 5322 5352 ... 6249

Time limit reached
Best objective 5.003000000000e+03, best bound 4.168000000000e+03, gap 16.6900%
